5079700160917388461508,15,1,2,09,12,1,2,011,10,1,2,05,14,1,2,010,9,1,2,014,10,1,2,04,13,1,2,06,1,1,2,010,4,1,2,010,5,1,2,08,9,1,2,03,15,1,2,03,10,1,2,011,1,1,2,08,10,1,2,015,14,1,2,014,8,1,2,013,1,1,2,06,3,1,2,02,3,1,2,08,12,1,2,08,15,1,2,015,5,1,2,02,10,1,2,03,6,1,2,08,4,1,2,04,11,1,2,06,8,1,2,01,9,1,2,04,6,1,2,011,10,1,2,06,5,1,2,09,5,1,2,014,12,1,2,04,2,1,2,08,11,1,2,03,10,1,2,014,10,1,2,09,11,1,2,06,7,1,2,01,7,1,2,010,5,1,2,01,1,1,2,04,2,1,2,014,10,1,2,01,4,1,2,010,6,1,2,06,5,1,2,015,14,1,2,04,1,1,2,0